Welcome to the CBC MILP Solver 
Version: 2.10.3 
Build Date: Dec 15 2019 

command line - C:\Users\YEO Nadege\AppData\Local\Packages\PythonSoftwareFoundation.Python.3.9_qbz5n2kfra8p0\LocalCache\local-packages\Python39\site-packages\pulp\apis\..\solverdir\cbc\win\64\cbc.exe C:\PROGRA~1\KMSpico\temp\f51c5bd9cf164f6783dd29fd08571cc3-pulp.mps timeMode elapsed branch printingOptions all solution C:\PROGRA~1\KMSpico\temp\f51c5bd9cf164f6783dd29fd08571cc3-pulp.sol (default strategy 1)
At line 2 NAME          MODEL
At line 3 ROWS
At line 55 COLUMNS
At line 199 RHS
At line 250 BOUNDS
At line 265 ENDATA
Problem MODEL has 50 rows, 23 columns and 114 elements
Coin0008I MODEL read with 0 errors
Option for timeMode changed from cpu to elapsed
Continuous objective value is 2 - 0.00 seconds
Cgl0003I 0 fixed, 6 tightened bounds, 0 strengthened rows, 0 substitutions
Cgl0003I 0 fixed, 4 tightened bounds, 0 strengthened rows, 0 substitutions
Cgl0004I processed model has 32 rows, 18 columns (10 integer (5 of which binary)) and 83 elements
Cutoff increment increased from 1e-05 to 0.9999
Cbc0038I Initial state - 0 integers unsatisfied sum - 5.2674e-11
Cbc0038I Solution found of 2
Cbc0038I Relaxing continuous gives 2
Cbc0038I Cleaned solution of 2
Cbc0038I Before mini branch and bound, 10 integers at bound fixed and 6 continuous of which 1 were internal integer and 0 internal continuous
Cbc0038I Mini branch and bound did not improve solution (0.00 seconds)
Cbc0038I After 0.00 seconds - Feasibility pump exiting with objective of 2 - took 0.00 seconds
Cbc0012I Integer solution of 2 found by feasibility pump after 0 iterations and 0 nodes (0.00 seconds)
Cbc0001I Search completed - best objective 2, took 0 iterations and 0 nodes (0.00 seconds)
Cbc0035I Maximum depth 0, 0 variables fixed on reduced cost
Cuts at root node changed objective from 2 to 2
Probing was tried 0 times and created 0 cuts of which 0 were active after adding rounds of cuts (0.000 seconds)
Gomory was tried 0 times and created 0 cuts of which 0 were active after adding rounds of cuts (0.000 seconds)
Knapsack was tried 0 times and created 0 cuts of which 0 were active after adding rounds of cuts (0.000 seconds)
Clique was tried 0 times and created 0 cuts of which 0 were active after adding rounds of cuts (0.000 seconds)
MixedIntegerRounding2 was tried 0 times and created 0 cuts of which 0 were active after adding rounds of cuts (0.000 seconds)
FlowCover was tried 0 times and created 0 cuts of which 0 were active after adding rounds of cuts (0.000 seconds)
TwoMirCuts was tried 0 times and created 0 cuts of which 0 were active after adding rounds of cuts (0.000 seconds)
ZeroHalf was tried 0 times and created 0 cuts of which 0 were active after adding rounds of cuts (0.000 seconds)

Result - Optimal solution found

Objective value:                2.00000000
Enumerated nodes:               0
Total iterations:               0
Time (CPU seconds):             0.01
Time (Wallclock seconds):       0.01

Option for printingOptions changed from normal to all
Total time (CPU seconds):       0.01   (Wallclock seconds):       0.01

